1663.44
0 18 16 6 30 29 67 75 0
0 9 25 24 33 22 70 15 13 0
0 50 55 11 59 27 40 0
0 41 61 69 71 60 5 45 2 7 0
0 66 14 43 49 44 51 17 0
0 53 65 10 58 72 64 4 0
0 21 57 54 8 52 12 26 0
0 20 37 3 32 35 46 62 68 0
0 56 1 47 36 28 74 34 0
0 63 23 42 73 48 19 38 31 39 0
